c 3x3
p cnf 9 64
1 2 4 0
-1 -2 4 0
-1 2 -4 0
1 -2 -4 0
1 2 3 5 0
-1 -2 3 5 0
-1 2 -3 5 0
-1 2 3 -5 0
1 -2 -3 5 0
1 -2 3 -5 0
1 2 -3 -5 0
-1 -2 -3 -5 0
2 3 6 0
-2 -3 6 0
-2 3 -6 0
2 -3 -6 0
1 4 5 7 0
-1 -4 5 7 0
-1 4 -5 7 0
-1 4 5 -7 0
1 -4 -5 7 0
1 -4 5 -7 0
1 4 -5 -7 0
-1 -4 -5 -7 0
2 4 5 6 8 0
-2 -4 5 6 8 0
-2 4 -5 6 8 0
-2 4 5 -6 8 0
-2 4 5 6 -8 0
2 -4 -5 6 8 0
2 -4 5 -6 8 0
2 -4 5 6 -8 0
2 4 -5 -6 8 0
2 4 -5 6 -8 0
2 4 5 -6 -8 0
-2 -4 -5 -6 8 0
-2 -4 -5 6 -8 0
-2 -4 5 -6 -8 0
-2 4 -5 -6 -8 0
2 -4 -5 -6 -8 0
3 5 6 9 0
-3 -5 6 9 0
-3 5 -6 9 0
-3 5 6 -9 0
3 -5 -6 9 0
3 -5 6 -9 0
3 5 -6 -9 0
-3 -5 -6 -9 0
4 7 8 0
-4 -7 8 0
-4 7 -8 0
4 -7 -8 0
5 7 8 9 0
-5 -7 8 9 0
-5 7 -8 9 0
-5 7 8 -9 0
5 -7 -8 9 0
5 -7 8 -9 0
5 7 -8 -9 0
-5 -7 -8 -9 0
6 8 9 0
-6 -8 9 0
-6 8 -9 0
6 -8 -9 0
